maximize
34365 x(1,1) + 1000 x(1,1) + 4.67 x(1,1) + 0 x(1,1) + 225630.0 x(1,1) + 175 x(1,1) + 825 x(1,1) + 54.35 x(1,1) + 34365 x(1,2) + 1000 x(1,2) + 4.67 x(1,2) + 0 x(1,2) + 225630.0 x(1,2) + 175 x(1,2) + 825 x(1,2) + 54.35 x(1,2) + 34365 x(1,3) + 1000 x(1,3) + 4.67 x(1,3) + 0 x(1,3) + 225630.0 x(1,3) + 175 x(1,3) + 825 x(1,3) + 54.35 x(1,3) + 34365 x(1,4) + 1000 x(1,4) + 4.67 x(1,4) + 0 x(1,4) + 225630.0 x(1,4) + 175 x(1,4) + 825 x(1,4) + 54.35 x(1,4) + 34365 x(1,5) + 1000 x(1,5) + 4.67 x(1,5) + 0 x(1,5) + 225630.0 x(1,5) + 175 x(1,5) + 275 x(1,5) + 0 x(1,5) + 34262 x(1,6) + 1000 x(1,6) + 4.67 x(1,6) + 0 x(1,6) + 225630.0 x(1,6) + 175 x(1,6) + 275 x(1,6) + 110.38 x(1,6) + 33959 x(1,7) + 1000 x(1,7) + 4.67 x(1,7) + 0 x(1,7) + 225630.0 x(1,7) + 175 x(1,7) + 825 x(1,7) + 58.41 x(1,7) + 33923 x(1,8) + 1000 x(1,8) + 4.67 x(1,8) + 0 x(1,8) + 225630.0 x(1,8) + 175 x(1,8) + 825 x(1,8) + 58.77 x(1,8) + 33760 x(1,9) + 1000 x(1,9) + 4.67 x(1,9) + 0 x(1,9) + 225630.0 x(1,9) + 175 x(1,9) + 825 x(1,9) + 664.4 x(1,9) + 33760 x(1,10) + 1000 x(1,10) + 4.67 x(1,10) + 0 x(1,10) + 225630.0 x(1,10) + 175 x(1,10) + 825 x(1,10) + 60.4 x(1,10) + 31820 x(2,1) + 2000 x(2,1) + 0 x(2,1) + 0 x(2,1) + 245325.0 x(2,1) + 152 x(2,1) + 825 x(2,1) + 79.8 x(2,1) + 27820 x(3,1) + 4000 x(3,1) + 4.18 x(3,1) + 5.0 x(3,1) + 156405.59999999998 x(3,1) + 230 x(3,1) + 825 x(3,1) + 239.8 x(3,1) + 32620 x(4,1) + 2000 x(4,1) + 4.45 x(4,1) + 0 x(4,1) + 226120.0 x(4,1) + 175 x(4,1) + 825 x(4,1) + 143.8 x(4,1) + 30220 x(4,2) + 2000 x(4,2) + 4.45 x(4,2) + 0 x(4,2) + 226120.0 x(4,2) + 175 x(4,2) + 825 x(4,2) + 1053.8 x(4,2) + 29262 x(4,3) + 2000 x(4,3) + 4.45 x(4,3) + 0 x(4,3) + 226120.0 x(4,3) + 175 x(4,3) + 285 x(4,3) + 210.38 x(4,3) + 27218 x(5,1) + 4000 x(5,1) + 5.0 x(5,1) + 0 x(5,1) + 182691.0 x(5,1) + 206 x(5,1) + 825 x(5,1) + 125.82 x(5,1) + 27218 x(5,2) + 4000 x(5,2) + 5.0 x(5,2) + 0 x(5,2) + 182691.0 x(5,2) + 206 x(5,2) + 825 x(5,2) + 125.82 x(5,2) + 27218 x(5,3) + 4000 x(5,3) + 5.0 x(5,3) + 0 x(5,3) + 182691.0 x(5,3) + 206 x(5,3) + 825 x(5,3) + 62.91 x(5,3) + 27218 x(5,4) + 4000 x(5,4) + 5.0 x(5,4) + 0 x(5,4) + 182691.0 x(5,4) + 206 x(5,4) + 825 x(5,4) + 125.82 x(5,4) + 27218 x(5,5) + 4000 x(5,5) + 5.0 x(5,5) + 0 x(5,5) + 182691.0 x(5,5) + 206 x(5,5) + 825 x(5,5) + 0 x(5,5) + 27218 x(5,6) + 4000 x(5,6) + 5.0 x(5,6) + 0 x(5,6) + 182691.0 x(5,6) + 206 x(5,6) + 225 x(5,6) + 1375.82 x(5,6) + 27210 x(5,7) + 4000 x(5,7) + 5.0 x(5,7) + 0 x(5,7) + 182691.0 x(5,7) + 206 x(5,7) + 825 x(5,7) + 1384.9 x(5,7) + 27210 x(5,8) + 4000 x(5,8) + 5.0 x(5,8) + 0 x(5,8) + 182691.0 x(5,8) + 206 x(5,8) + 825 x(5,8) + 1384.9 x(5,8) + 27090 x(5,9) + 4000 x(5,9) + 5.0 x(5,9) + 0 x(5,9) + 182691.0 x(5,9) + 206 x(5,9) + 275 x(5,9) + 254.1 x(5,9) + 27029 x(5,10) + 4000 x(5,10) + 5.0 x(5,10) + 0 x(5,10) + 182691.0 x(5,10) + 206 x(5,10) + 825 x(5,10) + 127.71 x(5,10) + 32995 x(6,1) + 2000 x(6,1) + 3.6 x(6,1) + 0 x(6,1) + 244255.84499999997 x(6,1) + 133 x(6,1) + 825 x(6,1) + 204.05 x(6,1) + 32831 x(6,2) + 2000 x(6,2) + 3.6 x(6,2) + 0 x(6,2) + 244255.84499999997 x(6,2) + 133 x(6,2) + 55 x(6,2) + 69.69 x(6,2) + 32390 x(6,3) + 2000 x(6,3) + 3.6 x(6,3) + 0 x(6,3) + 244255.84499999997 x(6,3) + 133 x(6,3) + 825 x(6,3) + 815.1 x(6,3) + 32100 x(6,4) + 2000 x(6,4) + 3.6 x(6,4) + 0 x(6,4) + 244255.84499999997 x(6,4) + 133 x(6,4) + 125 x(6,4) + 154.0 x(6,4) + 31639 x(6,5) + 2000 x(6,5) + 3.6 x(6,5) + 0 x(6,5) + 244255.84499999997 x(6,5) + 133 x(6,5) + 285 x(6,5) + 92.61 x(6,5) + 31275 x(6,6) + 2000 x(6,6) + 3.6 x(6,6) + 0 x(6,6) + 244255.84499999997 x(6,6) + 133 x(6,6) + 0 x(6,6) + 85.25 x(6,6) + 31180 x(6,7) + 2000 x(6,7) + 3.6 x(6,7) + 0 x(6,7) + 244255.84499999997 x(6,7) + 133 x(6,7) + 825 x(6,7) + 172.2 x(6,7) + 31161 x(6,8) + 2000 x(6,8) + 3.6 x(6,8) + 0 x(6,8) + 244255.84499999997 x(6,8) + 133 x(6,8) + 295 x(6,8) + 0 x(6,8) + 31020 x(6,9) + 2000 x(6,9) + 3.6 x(6,9) + 0 x(6,9) + 244255.84499999997 x(6,9) + 133 x(6,9) + 825 x(6,9) + 0 x(6,9) + 30684 x(6,10) + 2000 x(6,10) + 3.6 x(6,10) + 0 x(6,10) + 244255.84499999997 x(6,10) + 133 x(6,10) + 295 x(6,10) + 91.16 x(6,10) + 34370 x(7,1) + 1000 x(7,1) + 3.99 x(7,1) + 0 x(7,1) + 229452.0 x(7,1) + 125 x(7,1) + 825 x(7,1) + 597.3 x(7,1) + 34370 x(7,2) + 1000 x(7,2) + 3.99 x(7,2) + 0 x(7,2) + 229452.0 x(7,2) + 125 x(7,2) + 825 x(7,2) + 597.3 x(7,2) + 34369 x(7,3) + 1000 x(7,3) + 3.99 x(7,3) + 0 x(7,3) + 229452.0 x(7,3) + 125 x(7,3) + 825 x(7,3) + 54.31 x(7,3) + 34369 x(7,4) + 1000 x(7,4) + 3.99 x(7,4) + 0 x(7,4) + 229452.0 x(7,4) + 125 x(7,4) + 275 x(7,4) + 0 x(7,4) + 34369 x(7,5) + 1000 x(7,5) + 3.99 x(7,5) + 0 x(7,5) + 229452.0 x(7,5) + 125 x(7,5) + 225 x(7,5) + 108.31 x(7,5) + 34314 x(7,6) + 1000 x(7,6) + 3.99 x(7,6) + 0 x(7,6) + 229452.0 x(7,6) + 125 x(7,6) + 275 x(7,6) + 108.86 x(7,6) + 34107 x(7,7) + 1000 x(7,7) + 3.99 x(7,7) + 0 x(7,7) + 229452.0 x(7,7) + 125 x(7,7) + 825 x(7,7) + 56.93 x(7,7) + 34068 x(7,8) + 1000 x(7,8) + 3.99 x(7,8) + 0 x(7,8) + 229452.0 x(7,8) + 125 x(7,8) + 825 x(7,8) + 57.32 x(7,8) + 34037 x(7,9) + 1000 x(7,9) + 3.99 x(7,9) + 0 x(7,9) + 229452.0 x(7,9) + 125 x(7,9) + 825 x(7,9) + 57.63 x(7,9) + 34036 x(7,10) + 1000 x(7,10) + 3.99 x(7,10) + 0 x(7,10) + 229452.0 x(7,10) + 125 x(7,10) + 285 x(7,10) + 627.64 x(7,10) + 27300 x(8,1) + 4000 x(8,1) + 3.97 x(8,1) + 0 x(8,1) + 145079.25 x(8,1) + 250 x(8,1) + 825 x(8,1) + 0 x(8,1) + 27120 x(8,2) + 4000 x(8,2) + 3.97 x(8,2) + 0 x(8,2) + 145079.25 x(8,2) + 250 x(8,2) + 825 x(8,2) + 126.8 x(8,2) + 27120 x(8,3) + 4000 x(8,3) + 3.97 x(8,3) + 0 x(8,3) + 145079.25 x(8,3) + 250 x(8,3) + 825 x(8,3) + 126.8 x(8,3) + 27120 x(8,4) + 4000 x(8,4) + 3.97 x(8,4) + 0 x(8,4) + 145079.25 x(8,4) + 250 x(8,4) + 825 x(8,4) + 126.8 x(8,4) + 27120 x(8,5) + 4000 x(8,5) + 3.97 x(8,5) + 0 x(8,5) + 145079.25 x(8,5) + 250 x(8,5) + 825 x(8,5) + 126.8 x(8,5) + 26221 x(8,6) + 4000 x(8,6) + 3.97 x(8,6) + 0 x(8,6) + 145079.25 x(8,6) + 250 x(8,6) + 825 x(8,6) + 135.79 x(8,6) + 25748 x(8,7) + 4000 x(8,7) + 3.97 x(8,7) + 0 x(8,7) + 145079.25 x(8,7) + 250 x(8,7) + 825 x(8,7) + 0 x(8,7) + 25747 x(8,8) + 4000 x(8,8) + 3.97 x(8,8) + 0 x(8,8) + 145079.25 x(8,8) + 250 x(8,8) + 285 x(8,8) + 154.53 x(8,8) + 25637 x(8,9) + 4000 x(8,9) + 3.97 x(8,9) + 0 x(8,9) + 145079.25 x(8,9) + 250 x(8,9) + 825 x(8,9) + 141.63 x(8,9) + 25637 x(8,10) + 4000 x(8,10) + 3.97 x(8,10) + 0 x(8,10) + 145079.25 x(8,10) + 250 x(8,10) + 825 x(8,10) + 141.63 x(8,10) + 34351 x(9,1) + 1000 x(9,1) + 4.31 x(9,1) + 0 x(9,1) + 244255.84499999997 x(9,1) + 133 x(9,1) + 55 x(9,1) + 54.49 x(9,1) + 34330 x(9,2) + 1000 x(9,2) + 4.31 x(9,2) + 0 x(9,2) + 244255.84499999997 x(9,2) + 133 x(9,2) + 825 x(9,2) + 601.7 x(9,2) + 34320 x(9,3) + 1000 x(9,3) + 4.31 x(9,3) + 0 x(9,3) + 244255.84499999997 x(9,3) + 133 x(9,3) + 825 x(9,3) + 0 x(9,3) + 34320 x(9,4) + 1000 x(9,4) + 4.31 x(9,4) + 0 x(9,4) + 244255.84499999997 x(9,4) + 133 x(9,4) + 825 x(9,4) + 54.8 x(9,4) + 34230 x(9,5) + 1000 x(9,5) + 4.31 x(9,5) + 0 x(9,5) + 244255.84499999997 x(9,5) + 133 x(9,5) + 125 x(9,5) + 111.7 x(9,5) + 33810 x(9,6) + 1000 x(9,6) + 4.31 x(9,6) + 0 x(9,6) + 244255.84499999997 x(9,6) + 133 x(9,6) + 825 x(9,6) + 118.9 x(9,6) + 33610 x(9,7) + 1000 x(9,7) + 4.31 x(9,7) + 0 x(9,7) + 244255.84499999997 x(9,7) + 133 x(9,7) + 285 x(9,7) + 69.9 x(9,7) + 33580 x(9,8) + 1000 x(9,8) + 4.31 x(9,8) + 0 x(9,8) + 244255.84499999997 x(9,8) + 133 x(9,8) + 295 x(9,8) + 0 x(9,8) + 33475 x(9,9) + 1000 x(9,9) + 4.31 x(9,9) + 0 x(9,9) + 244255.84499999997 x(9,9) + 133 x(9,9) + 0 x(9,9) + 63.25 x(9,9) + 33237 x(9,10) + 1000 x(9,10) + 4.31 x(9,10) + 0 x(9,10) + 244255.84499999997 x(9,10) + 133 x(9,10) + 295 x(9,10) + 65.63 x(9,10) + 24220 x(10,1) + 5000 x(10,1) + 5.0 x(10,1) + 0 x(10,1) + 178050.0 x(10,1) + 225 x(10,1) + 825 x(10,1) + 311.8 x(10,1) + 17822 x(10,2) + 5000 x(10,2) + 5.0 x(10,2) + 0 x(10,2) + 178050.0 x(10,2) + 225 x(10,2) + 825 x(10,2) + 2417.78 x(10,2) + 17822 x(10,3) + 5000 x(10,3) + 5.0 x(10,3) + 0 x(10,3) + 178050.0 x(10,3) + 225 x(10,3) + 825 x(10,3) + 2417.78 x(10,3) + 17822 x(10,4) + 5000 x(10,4) + 5.0 x(10,4) + 0 x(10,4) + 178050.0 x(10,4) + 225 x(10,4) + 825 x(10,4) + 2417.78 x(10,4) + 17822 x(10,5) + 5000 x(10,5) + 5.0 x(10,5) + 0 x(10,5) + 178050.0 x(10,5) + 225 x(10,5) + 285 x(10,5) + 438.78 x(10,5) + 17822 x(10,6) + 5000 x(10,6) + 5.0 x(10,6) + 0 x(10,6) + 178050.0 x(10,6) + 225 x(10,6) + 825 x(10,6) + 2409.78 x(10,6) + 17822 x(10,7) + 5000 x(10,7) + 5.0 x(10,7) + 0 x(10,7) + 178050.0 x(10,7) + 225 x(10,7) + 825 x(10,7) + 438.78 x(10,7) + 34920 x(11,1) + 1000 x(11,1) + 3.72 x(11,1) + 0 x(11,1) + 245325.0 x(11,1) + 152 x(11,1) + 825 x(11,1) + 48.8 x(11,1) + 31920 x(12,1) + 2000 x(12,1) + 4.77 x(12,1) + 0 x(12,1) + 180016.03999999998 x(12,1) + 185 x(12,1) + 825 x(12,1) + 78.8 x(12,1) + 31600 x(12,2) + 2000 x(12,2) + 4.77 x(12,2) + 0 x(12,2) + 180016.03999999998 x(12,2) + 185 x(12,2) + 85 x(12,2) + 164.0 x(12,2) + 31520 x(12,3) + 2000 x(12,3) + 4.77 x(12,3) + 0 x(12,3) + 180016.03999999998 x(12,3) + 185 x(12,3) + 825 x(12,3) + 164.8 x(12,3) + 31520 x(12,4) + 2000 x(12,4) + 4.77 x(12,4) + 0 x(12,4) + 180016.03999999998 x(12,4) + 185 x(12,4) + 307 x(12,4) + 164.8 x(12,4) + 31520 x(12,5) + 2000 x(12,5) + 4.77 x(12,5) + 0 x(12,5) + 180016.03999999998 x(12,5) + 185 x(12,5) + 825 x(12,5) + 164.8 x(12,5) + 31220 x(12,6) + 2000 x(12,6) + 4.77 x(12,6) + 0 x(12,6) + 180016.03999999998 x(12,6) + 185 x(12,6) + 825 x(12,6) + 85.8 x(12,6) + 26924 x(12,7) + 2000 x(12,7) + 4.77 x(12,7) + 0 x(12,7) + 180016.03999999998 x(12,7) + 185 x(12,7) + 825 x(12,7) + 128.76 x(12,7) + 26924 x(12,8) + 2000 x(12,8) + 4.77 x(12,8) + 0 x(12,8) + 180016.03999999998 x(12,8) + 185 x(12,8) + 225 x(12,8) + 0 x(12,8) + 26460 x(12,9) + 2000 x(12,9) + 4.77 x(12,9) + 0 x(12,9) + 180016.03999999998 x(12,9) + 185 x(12,9) + 225 x(12,9) + 133.4 x(12,9) + 26120 x(12,10) + 2000 x(12,10) + 4.77 x(12,10) + 0 x(12,10) + 180016.03999999998 x(12,10) + 185 x(12,10) + 825 x(12,10) + 272.8 x(12,10) + 24000 x(13,1) + 5000 x(13,1) + 3.0 x(13,1) + 0 x(13,1) + 145079.25 x(13,1) + 250 x(13,1) + 825 x(13,1) + 158.0 x(13,1) + 23760 x(13,2) + 5000 x(13,2) + 3.0 x(13,2) + 0 x(13,2) + 145079.25 x(13,2) + 250 x(13,2) + 825 x(13,2) + 160.4 x(13,2) + 23760 x(13,3) + 5000 x(13,3) + 3.0 x(13,3) + 0 x(13,3) + 145079.25 x(13,3) + 250 x(13,3) + 825 x(13,3) + 160.4 x(13,3) + 23760 x(13,4) + 5000 x(13,4) + 3.0 x(13,4) + 0 x(13,4) + 145079.25 x(13,4) + 250 x(13,4) + 825 x(13,4) + 0 x(13,4) + 23600 x(13,5) + 5000 x(13,5) + 3.0 x(13,5) + 0 x(13,5) + 145079.25 x(13,5) + 250 x(13,5) + 825 x(13,5) + 324.0 x(13,5) + 23599 x(13,6) + 5000 x(13,6) + 3.0 x(13,6) + 0 x(13,6) + 145079.25 x(13,6) + 250 x(13,6) + 275 x(13,6) + 324.01 x(13,6) + 23300 x(13,7) + 5000 x(13,7) + 3.0 x(13,7) + 0 x(13,7) + 145079.25 x(13,7) + 250 x(13,7) + 825 x(13,7) + 165.0 x(13,7) + 23298 x(13,8) + 5000 x(13,8) + 3.0 x(13,8) + 0 x(13,8) + 145079.25 x(13,8) + 250 x(13,8) + 825 x(13,8) + 0 x(13,8) + 23297 x(13,9) + 5000 x(13,9) + 3.0 x(13,9) + 0 x(13,9) + 145079.25 x(13,9) + 250 x(13,9) + 285 x(13,9) + 179.03 x(13,9) + 23233 x(13,10) + 5000 x(13,10) + 3.0 x(13,10) + 0 x(13,10) + 145079.25 x(13,10) + 250 x(13,10) + 825 x(13,10) + 165.67 x(13,10) + 31102 x(14,1) + 2000 x(14,1) + 4.1 x(14,1) + 0 x(14,1) + 177367.5 x(14,1) + 240 x(14,1) + 285 x(14,1) + 97.98 x(14,1) + 31059 x(14,2) + 2000 x(14,2) + 4.1 x(14,2) + 0 x(14,2) + 177367.5 x(14,2) + 240 x(14,2) + 225 x(14,2) + 87.41 x(14,2) + 30962 x(14,3) + 2000 x(14,3) + 4.1 x(14,3) + 0 x(14,3) + 177367.5 x(14,3) + 240 x(14,3) + 225 x(14,3) + 0 x(14,3) + 30961 x(14,4) + 2000 x(14,4) + 4.1 x(14,4) + 0 x(14,4) + 177367.5 x(14,4) + 240 x(14,4) + 285 x(14,4) + 176.39 x(14,4) + 30961 x(14,5) + 2000 x(14,5) + 4.1 x(14,5) + 0 x(14,5) + 177367.5 x(14,5) + 240 x(14,5) + 285 x(14,5) + 176.39 x(14,5) + 30961 x(14,6) + 2000 x(14,6) + 4.1 x(14,6) + 0 x(14,6) + 177367.5 x(14,6) + 240 x(14,6) + 285 x(14,6) + 176.39 x(14,6) + 30820 x(14,7) + 2000 x(14,7) + 4.1 x(14,7) + 0 x(14,7) + 177367.5 x(14,7) + 240 x(14,7) + 825 x(14,7) + 0 x(14,7) + 30820 x(14,8) + 2000 x(14,8) + 4.1 x(14,8) + 0 x(14,8) + 177367.5 x(14,8) + 240 x(14,8) + 825 x(14,8) + 89.8 x(14,8) + 30534 x(14,9) + 2000 x(14,9) + 4.1 x(14,9) + 0 x(14,9) + 177367.5 x(14,9) + 240 x(14,9) + 825 x(14,9) + 92.66 x(14,9) + 30520 x(14,10) + 2000 x(14,10) + 4.1 x(14,10) + 0 x(14,10) + 177367.5 x(14,10) + 240 x(14,10) + 825 x(14,10) + 0 x(14,10) + 28820 x(15,1) + 3000 x(15,1) + 4.36 x(15,1) + 5.0 x(15,1) + 156405.59999999998 x(15,1) + 230 x(15,1) + 825 x(15,1) + 219.8 x(15,1) + 10000 x(16,1) + 4000 x(16,1) + 0 x(16,1) + 5.0 x(16,1) + 154377.0 x(16,1) + 240 x(16,1) + 825 x(16,1) + 298.0 x(16,1) + 0 x(17,1) + 5000 x(17,1) + 0 x(17,1) + 5.0 x(17,1) + 154377.0 x(17,1) + 240 x(17,1) + 825 x(17,1) + 398.0 x(17,1) + 18759 x(18,1) + 4000 x(18,1) + 0 x(18,1) + 5.0 x(18,1) + 109280.0 x(18,1) + 270 x(18,1) + 825 x(18,1) + 210.41 x(18,1) + 18020 x(18,2) + 4000 x(18,2) + 0 x(18,2) + 5.0 x(18,2) + 109280.0 x(18,2) + 270 x(18,2) + 825 x(18,2) + 2395.8 x(18,2) + 18020 x(18,3) + 4000 x(18,3) + 0 x(18,3) + 5.0 x(18,3) + 109280.0 x(18,3) + 270 x(18,3) + 825 x(18,3) + 2395.8 x(18,3) + 18020 x(18,4) + 4000 x(18,4) + 0 x(18,4) + 5.0 x(18,4) + 109280.0 x(18,4) + 270 x(18,4) + 825 x(18,4) + 2395.8 x(18,4) + 18020 x(18,5) + 4000 x(18,5) + 0 x(18,5) + 5.0 x(18,5) + 109280.0 x(18,5) + 270 x(18,5) + 825 x(18,5) + 217.8 x(18,5) + 18020 x(18,6) + 4000 x(18,6) + 0 x(18,6) + 5.0 x(18,6) + 109280.0 x(18,6) + 270 x(18,6) + 825 x(18,6) + 2613.8 x(18,6) + 18020 x(18,7) + 4000 x(18,7) + 0 x(18,7) + 5.0 x(18,7) + 109280.0 x(18,7) + 270 x(18,7) + 825 x(18,7) + 2395.8 x(18,7) + 18020 x(18,8) + 4000 x(18,8) + 0 x(18,8) + 5.0 x(18,8) + 109280.0 x(18,8) + 270 x(18,8) + 285 x(18,8) + 434.8 x(18,8) + 18020 x(18,9) + 4000 x(18,9) + 0 x(18,9) + 5.0 x(18,9) + 109280.0 x(18,9) + 270 x(18,9) + 825 x(18,9) + 434.8 x(18,9) + 21164 x(19,1) + 4000 x(19,1) + 5.0 x(19,1) + 0.14 x(19,1) + 0.0 x(19,1) + 349 x(19,1) + 825 x(19,1) + 372.36 x(19,1) + 20000 x(19,2) + 4000 x(19,2) + 5.0 x(19,2) + 0.14 x(19,2) + 0.0 x(19,2) + 349 x(19,2) + 825 x(19,2) + 198.0 x(19,2) + 19700 x(19,3) + 4000 x(19,3) + 5.0 x(19,3) + 0.14 x(19,3) + 0.0 x(19,3) + 349 x(19,3) + 825 x(19,3) + 201.0 x(19,3) + 19300 x(19,4) + 4000 x(19,4) + 5.0 x(19,4) + 0.14 x(19,4) + 0.0 x(19,4) + 349 x(19,4) + 825 x(19,4) + 2255.0 x(19,4) + 19300 x(19,5) + 4000 x(19,5) + 5.0 x(19,5) + 0.14 x(19,5) + 0.0 x(19,5) + 349 x(19,5) + 825 x(19,5) + 2255.0 x(19,5) + 19300 x(19,6) + 4000 x(19,6) + 5.0 x(19,6) + 0.14 x(19,6) + 0.0 x(19,6) + 349 x(19,6) + 825 x(19,6) + 2255.0 x(19,6) + 19300 x(19,7) + 4000 x(19,7) + 5.0 x(19,7) + 0.14 x(19,7) + 0.0 x(19,7) + 349 x(19,7) + 825 x(19,7) + 2255.0 x(19,7) + 19300 x(19,8) + 4000 x(19,8) + 5.0 x(19,8) + 0.14 x(19,8) + 0.0 x(19,8) + 349 x(19,8) + 825 x(19,8) + 2255.0 x(19,8) + 19300 x(19,9) + 4000 x(19,9) + 5.0 x(19,9) + 0.14 x(19,9) + 0.0 x(19,9) + 349 x(19,9) + 285 x(19,9) + 410.0 x(19,9) + 19300 x(19,10) + 4000 x(19,10) + 5.0 x(19,10) + 0.14 x(19,10) + 0.0 x(19,10) + 349 x(19,10) + 825 x(19,10) + 410.0 x(19,10) + 28470 x(20,1) + 2000 x(20,1) + 4.48 x(20,1) + 0 x(20,1) + 177367.5 x(20,1) + 240 x(20,1) + 825 x(20,1) + 113.3 x(20,1) + 28470 x(20,2) + 2000 x(20,2) + 4.48 x(20,2) + 0 x(20,2) + 177367.5 x(20,2) + 240 x(20,2) + 825 x(20,2) + 113.3 x(20,2) + 28470 x(20,3) + 2000 x(20,3) + 4.48 x(20,3) + 0 x(20,3) + 177367.5 x(20,3) + 240 x(20,3) + 825 x(20,3) + 113.3 x(20,3) + 28470 x(20,4) + 2000 x(20,4) + 4.48 x(20,4) + 0 x(20,4) + 177367.5 x(20,4) + 240 x(20,4) + 825 x(20,4) + 113.3 x(20,4) + 28470 x(20,5) + 2000 x(20,5) + 4.48 x(20,5) + 0 x(20,5) + 177367.5 x(20,5) + 240 x(20,5) + 825 x(20,5) + 0 x(20,5) + 28356 x(20,6) + 2000 x(20,6) + 4.48 x(20,6) + 0 x(20,6) + 177367.5 x(20,6) + 240 x(20,6) + 825 x(20,6) + 228.44 x(20,6) + 28356 x(20,7) + 2000 x(20,7) + 4.48 x(20,7) + 0 x(20,7) + 177367.5 x(20,7) + 240 x(20,7) + 825 x(20,7) + 229.44 x(20,7) + 28356 x(20,8) + 2000 x(20,8) + 4.48 x(20,8) + 0 x(20,8) + 177367.5 x(20,8) + 240 x(20,8) + 825 x(20,8) + 114.44 x(20,8) + 28356 x(20,9) + 2000 x(20,9) + 4.48 x(20,9) + 0 x(20,9) + 177367.5 x(20,9) + 240 x(20,9) + 275 x(20,9) + 228.44 x(20,9) + 28199 x(20,10) + 2000 x(20,10) + 4.48 x(20,10) + 0 x(20,10) + 177367.5 x(20,10) + 240 x(20,10) + 825 x(20,10) + 0 x(20,10)
subject to
c1: x(1,1) + x(1,2) + x(1,3) + x(1,4) + x(1,5) + x(1,6) + x(1,7) + x(1,8) + x(1,9) + x(1,10) + x(2,1) + x(3,1) + x(4,1) + x(4,2) + x(4,3) + x(5,1) + x(5,2) + x(5,3) + x(5,4) + x(5,5) + x(5,6) + x(5,7) + x(5,8) + x(5,9) + x(5,10) + x(6,1) + x(6,2) + x(6,3) + x(6,4) + x(6,5) + x(6,6) + x(6,7) + x(6,8) + x(6,9) + x(6,10) + x(7,1) + x(7,2) + x(7,3) + x(7,4) + x(7,5) + x(7,6) + x(7,7) + x(7,8) + x(7,9) + x(7,10) + x(8,1) + x(8,2) + x(8,3) + x(8,4) + x(8,5) + x(8,6) + x(8,7) + x(8,8) + x(8,9) + x(8,10) + x(9,1) + x(9,2) + x(9,3) + x(9,4) + x(9,5) + x(9,6) + x(9,7) + x(9,8) + x(9,9) + x(9,10) + x(10,1) + x(10,2) + x(10,3) + x(10,4) + x(10,5) + x(10,6) + x(10,7) + x(11,1) + x(12,1) + x(12,2) + x(12,3) + x(12,4) + x(12,5) + x(12,6) + x(12,7) + x(12,8) + x(12,9) + x(12,10) + x(13,1) + x(13,2) + x(13,3) + x(13,4) + x(13,5) + x(13,6) + x(13,7) + x(13,8) + x(13,9) + x(13,10) + x(14,1) + x(14,2) + x(14,3) + x(14,4) + x(14,5) + x(14,6) + x(14,7) + x(14,8) + x(14,9) + x(14,10) + x(15,1) + x(16,1) + x(17,1) + x(18,1) + x(18,2) + x(18,3) + x(18,4) + x(18,5) + x(18,6) + x(18,7) + x(18,8) + x(18,9) + x(19,1) + x(19,2) + x(19,3) + x(19,4) + x(19,5) + x(19,6) + x(19,7) + x(19,8) + x(19,9) + x(19,10) + x(20,1) + x(20,2) + x(20,3) + x(20,4) + x(20,5) + x(20,6) + x(20,7) + x(20,8) + x(20,9) + x(20,10) >= 1
c2: 1000 x(1,1) + 1000 x(1,2) + 1000 x(1,3) + 1000 x(1,4) + 1000 x(1,5) + 1000 x(1,6) + 1000 x(1,7) + 1000 x(1,8) + 1000 x(1,9) + 1000 x(1,10) + 2000 x(2,1) + 4000 x(3,1) + 2000 x(4,1) + 2000 x(4,2) + 2000 x(4,3) + 4000 x(5,1) + 4000 x(5,2) + 4000 x(5,3) + 4000 x(5,4) + 4000 x(5,5) + 4000 x(5,6) + 4000 x(5,7) + 4000 x(5,8) + 4000 x(5,9) + 4000 x(5,10) + 2000 x(6,1) + 2000 x(6,2) + 2000 x(6,3) + 2000 x(6,4) + 2000 x(6,5) + 2000 x(6,6) + 2000 x(6,7) + 2000 x(6,8) + 2000 x(6,9) + 2000 x(6,10) + 1000 x(7,1) + 1000 x(7,2) + 1000 x(7,3) + 1000 x(7,4) + 1000 x(7,5) + 1000 x(7,6) + 1000 x(7,7) + 1000 x(7,8) + 1000 x(7,9) + 1000 x(7,10) + 4000 x(8,1) + 4000 x(8,2) + 4000 x(8,3) + 4000 x(8,4) + 4000 x(8,5) + 4000 x(8,6) + 4000 x(8,7) + 4000 x(8,8) + 4000 x(8,9) + 4000 x(8,10) + 1000 x(9,1) + 1000 x(9,2) + 1000 x(9,3) + 1000 x(9,4) + 1000 x(9,5) + 1000 x(9,6) + 1000 x(9,7) + 1000 x(9,8) + 1000 x(9,9) + 1000 x(9,10) + 5000 x(10,1) + 5000 x(10,2) + 5000 x(10,3) + 5000 x(10,4) + 5000 x(10,5) + 5000 x(10,6) + 5000 x(10,7) + 1000 x(11,1) + 2000 x(12,1) + 2000 x(12,2) + 2000 x(12,3) + 2000 x(12,4) + 2000 x(12,5) + 2000 x(12,6) + 2000 x(12,7) + 2000 x(12,8) + 2000 x(12,9) + 2000 x(12,10) + 5000 x(13,1) + 5000 x(13,2) + 5000 x(13,3) + 5000 x(13,4) + 5000 x(13,5) + 5000 x(13,6) + 5000 x(13,7) + 5000 x(13,8) + 5000 x(13,9) + 5000 x(13,10) + 2000 x(14,1) + 2000 x(14,2) + 2000 x(14,3) + 2000 x(14,4) + 2000 x(14,5) + 2000 x(14,6) + 2000 x(14,7) + 2000 x(14,8) + 2000 x(14,9) + 2000 x(14,10) + 3000 x(15,1) + 4000 x(16,1) + 5000 x(17,1) + 4000 x(18,1) + 4000 x(18,2) + 4000 x(18,3) + 4000 x(18,4) + 4000 x(18,5) + 4000 x(18,6) + 4000 x(18,7) + 4000 x(18,8) + 4000 x(18,9) + 4000 x(19,1) + 4000 x(19,2) + 4000 x(19,3) + 4000 x(19,4) + 4000 x(19,5) + 4000 x(19,6) + 4000 x(19,7) + 4000 x(19,8) + 4000 x(19,9) + 4000 x(19,10) + 2000 x(20,1) + 2000 x(20,2) + 2000 x(20,3) + 2000 x(20,4) + 2000 x(20,5) + 2000 x(20,6) + 2000 x(20,7) + 2000 x(20,8) + 2000 x(20,9) + 2000 x(20,10) = 8000
c3: 5435 x(1,1) + 5435 x(1,2) + 5435 x(1,3) + 5435 x(1,4) + 5435 x(1,5) + 5538 x(1,6) + 5841 x(1,7) + 5877 x(1,8) + 6040 x(1,9) + 6040 x(1,10) + 7980 x(2,1) + 11980 x(3,1) + 7180 x(4,1) + 9580 x(4,2) + 10538 x(4,3) + 12582 x(5,1) + 12582 x(5,2) + 12582 x(5,3) + 12582 x(5,4) + 12582 x(5,5) + 12582 x(5,6) + 12590 x(5,7) + 12590 x(5,8) + 12710 x(5,9) + 12771 x(5,10) + 6805 x(6,1) + 6969 x(6,2) + 7410 x(6,3) + 7700 x(6,4) + 8161 x(6,5) + 8525 x(6,6) + 8620 x(6,7) + 8639 x(6,8) + 8780 x(6,9) + 9116 x(6,10) + 5430 x(7,1) + 5430 x(7,2) + 5431 x(7,3) + 5431 x(7,4) + 5431 x(7,5) + 5486 x(7,6) + 5693 x(7,7) + 5732 x(7,8) + 5763 x(7,9) + 5764 x(7,10) + 12500 x(8,1) + 12680 x(8,2) + 12680 x(8,3) + 12680 x(8,4) + 12680 x(8,5) + 13579 x(8,6) + 14052 x(8,7) + 14053 x(8,8) + 14163 x(8,9) + 14163 x(8,10) + 5449 x(9,1) + 5470 x(9,2) + 5480 x(9,3) + 5480 x(9,4) + 5570 x(9,5) + 5990 x(9,6) + 6190 x(9,7) + 6220 x(9,8) + 6325 x(9,9) + 6563 x(9,10) + 15580 x(10,1) + 21978 x(10,2) + 21978 x(10,3) + 21978 x(10,4) + 21978 x(10,5) + 21978 x(10,6) + 21978 x(10,7) + 4880 x(11,1) + 7880 x(12,1) + 8200 x(12,2) + 8280 x(12,3) + 8280 x(12,4) + 8280 x(12,5) + 8580 x(12,6) + 12876 x(12,7) + 12876 x(12,8) + 13340 x(12,9) + 13680 x(12,10) + 15800 x(13,1) + 16040 x(13,2) + 16040 x(13,3) + 16040 x(13,4) + 16200 x(13,5) + 16201 x(13,6) + 16500 x(13,7) + 16502 x(13,8) + 16503 x(13,9) + 16567 x(13,10) + 8698 x(14,1) + 8741 x(14,2) + 8838 x(14,3) + 8839 x(14,4) + 8839 x(14,5) + 8839 x(14,6) + 8980 x(14,7) + 8980 x(14,8) + 9266 x(14,9) + 9280 x(14,10) + 10980 x(15,1) + 29800 x(16,1) + 39800 x(17,1) + 21041 x(18,1) + 21780 x(18,2) + 21780 x(18,3) + 21780 x(18,4) + 21780 x(18,5) + 21780 x(18,6) + 21780 x(18,7) + 21780 x(18,8) + 21780 x(18,9) + 18636 x(19,1) + 19800 x(19,2) + 20100 x(19,3) + 20500 x(19,4) + 20500 x(19,5) + 20500 x(19,6) + 20500 x(19,7) + 20500 x(19,8) + 20500 x(19,9) + 20500 x(19,10) + 11330 x(20,1) + 11330 x(20,2) + 11330 x(20,3) + 11330 x(20,4) + 11330 x(20,5) + 11444 x(20,6) + 11444 x(20,7) + 11444 x(20,8) + 11444 x(20,9) + 11601 x(20,10) <= 50000
bounds
x(1,1)
x(1,2)
x(1,3)
x(1,4)
x(1,5)
x(1,6)
x(1,7)
x(1,8)
x(1,9)
x(1,10)
x(2,1)
x(3,1)
x(4,1)
x(4,2)
x(4,3)
x(5,1)
x(5,2)
x(5,3)
x(5,4)
x(5,5)
x(5,6)
x(5,7)
x(5,8)
x(5,9)
x(5,10)
x(6,1)
x(6,2)
x(6,3)
x(6,4)
x(6,5)
x(6,6)
x(6,7)
x(6,8)
x(6,9)
x(6,10)
x(7,1)
x(7,2)
x(7,3)
x(7,4)
x(7,5)
x(7,6)
x(7,7)
x(7,8)
x(7,9)
x(7,10)
x(8,1)
x(8,2)
x(8,3)
x(8,4)
x(8,5)
x(8,6)
x(8,7)
x(8,8)
x(8,9)
x(8,10)
x(9,1)
x(9,2)
x(9,3)
x(9,4)
x(9,5)
x(9,6)
x(9,7)
x(9,8)
x(9,9)
x(9,10)
x(10,1)
x(10,2)
x(10,3)
x(10,4)
x(10,5)
x(10,6)
x(10,7)
x(11,1)
x(12,1)
x(12,2)
x(12,3)
x(12,4)
x(12,5)
x(12,6)
x(12,7)
x(12,8)
x(12,9)
x(12,10)
x(13,1)
x(13,2)
x(13,3)
x(13,4)
x(13,5)
x(13,6)
x(13,7)
x(13,8)
x(13,9)
x(13,10)
x(14,1)
x(14,2)
x(14,3)
x(14,4)
x(14,5)
x(14,6)
x(14,7)
x(14,8)
x(14,9)
x(14,10)
x(15,1)
x(16,1)
x(17,1)
x(18,1)
x(18,2)
x(18,3)
x(18,4)
x(18,5)
x(18,6)
x(18,7)
x(18,8)
x(18,9)
x(19,1)
x(19,2)
x(19,3)
x(19,4)
x(19,5)
x(19,6)
x(19,7)
x(19,8)
x(19,9)
x(19,10)
x(20,1)
x(20,2)
x(20,3)
x(20,4)
x(20,5)
x(20,6)
x(20,7)
x(20,8)
x(20,9)
x(20,10)
binary
x(1,1)
x(1,2)
x(1,3)
x(1,4)
x(1,5)
x(1,6)
x(1,7)
x(1,8)
x(1,9)
x(1,10)
x(2,1)
x(3,1)
x(4,1)
x(4,2)
x(4,3)
x(5,1)
x(5,2)
x(5,3)
x(5,4)
x(5,5)
x(5,6)
x(5,7)
x(5,8)
x(5,9)
x(5,10)
x(6,1)
x(6,2)
x(6,3)
x(6,4)
x(6,5)
x(6,6)
x(6,7)
x(6,8)
x(6,9)
x(6,10)
x(7,1)
x(7,2)
x(7,3)
x(7,4)
x(7,5)
x(7,6)
x(7,7)
x(7,8)
x(7,9)
x(7,10)
x(8,1)
x(8,2)
x(8,3)
x(8,4)
x(8,5)
x(8,6)
x(8,7)
x(8,8)
x(8,9)
x(8,10)
x(9,1)
x(9,2)
x(9,3)
x(9,4)
x(9,5)
x(9,6)
x(9,7)
x(9,8)
x(9,9)
x(9,10)
x(10,1)
x(10,2)
x(10,3)
x(10,4)
x(10,5)
x(10,6)
x(10,7)
x(11,1)
x(12,1)
x(12,2)
x(12,3)
x(12,4)
x(12,5)
x(12,6)
x(12,7)
x(12,8)
x(12,9)
x(12,10)
x(13,1)
x(13,2)
x(13,3)
x(13,4)
x(13,5)
x(13,6)
x(13,7)
x(13,8)
x(13,9)
x(13,10)
x(14,1)
x(14,2)
x(14,3)
x(14,4)
x(14,5)
x(14,6)
x(14,7)
x(14,8)
x(14,9)
x(14,10)
x(15,1)
x(16,1)
x(17,1)
x(18,1)
x(18,2)
x(18,3)
x(18,4)
x(18,5)
x(18,6)
x(18,7)
x(18,8)
x(18,9)
x(19,1)
x(19,2)
x(19,3)
x(19,4)
x(19,5)
x(19,6)
x(19,7)
x(19,8)
x(19,9)
x(19,10)
x(20,1)
x(20,2)
x(20,3)
x(20,4)
x(20,5)
x(20,6)
x(20,7)
x(20,8)
x(20,9)
x(20,10)
end